sat
(
  (define-fun C3_VM5 () Int
    1)
  (define-fun PriceProv1 () Int
    126)
  (define-fun C2_VM3 () Int
    1)
  (define-fun PriceProv7 () Int
    126)
  (define-fun C2_VM9 () Int
    0)
  (define-fun C2_VM7 () Int
    0)
  (define-fun ProcProv5 () Int
    4)
  (define-fun C4_VM4 () Int
    0)
  (define-fun VM8Type () Int
    225)
  (define-fun C5_VM8 () Int
    0)
  (define-fun VM7Type () Int
    225)
  (define-fun C3_VM9 () Int
    0)
  (define-fun ProcProv3 () Int
    2)
  (define-fun C1_VM8 () Int
    1)
  (define-fun PriceProv9 () Int
    126)
  (define-fun C4_VM8 () Int
    0)
  (define-fun C5_VM9 () Int
    0)
  (define-fun C1_VM5 () Int
    0)
  (define-fun VM4Type () Int
    225)
  (define-fun VM1Type () Int
    225)
  (define-fun C4_VM7 () Int
    0)
  (define-fun ProcProv8 () Int
    2)
  (define-fun StorageProv10 () Int
    2000)
  (define-fun VM3Type () Int
    225)
  (define-fun MemProv4 () Int
    3750)
  (define-fun C2_VM6 () Int
    0)
  (define-fun C2_VM8 () Int
    0)
  (define-fun C1_VM10 () Int
    1)
  (define-fun C5_VM10 () Int
    0)
  (define-fun MemProv5 () Int
    7500)
  (define-fun MemProv2 () Int
    7500)
  (define-fun StorageProv8 () Int
    2000)
  (define-fun MemProv7 () Int
    3750)
  (define-fun C5_VM4 () Int
    0)
  (define-fun C2_VM4 () Int
    1)
  (define-fun ProcProv1 () Int
    2)
  (define-fun PriceProv8 () Int
    126)
  (define-fun C3_VM10 () Int
    0)
  (define-fun PriceProv2 () Int
    210)
  (define-fun C5_VM1 () Int
    0)
  (define-fun C4_VM2 () Int
    0)
  (define-fun StorageProv9 () Int
    2000)
  (define-fun C1_VM4 () Int
    0)
  (define-fun C3_VM4 () Int
    0)
  (define-fun VM5Type () Int
    182)
  (define-fun MemProv3 () Int
    3750)
  (define-fun MemProv10 () Int
    3750)
  (define-fun C1_VM6 () Int
    0)
  (define-fun MemProv6 () Int
    7500)
  (define-fun C4_VM5 () Int
    0)
  (define-fun C1_VM1 () Int
    0)
  (define-fun PriceProv4 () Int
    126)
  (define-fun ProcProv7 () Int
    2)
  (define-fun C1_VM9 () Int
    1)
  (define-fun PriceProv10 () Int
    126)
  (define-fun VM2Type () Int
    182)
  (define-fun PriceProv3 () Int
    126)
  (define-fun C2_VM5 () Int
    0)
  (define-fun MemProv8 () Int
    3750)
  (define-fun C1_VM7 () Int
    1)
  (define-fun StorageProv6 () Int
    2000)
  (define-fun ProcProv9 () Int
    2)
  (define-fun ProcProv4 () Int
    2)
  (define-fun StorageProv1 () Int
    2000)
  (define-fun C3_VM1 () Int
    0)
  (define-fun MemProv9 () Int
    3750)
  (define-fun StorageProv7 () Int
    2000)
  (define-fun C2_VM10 () Int
    0)
  (define-fun C5_VM6 () Int
    1)
  (define-fun C3_VM2 () Int
    0)
  (define-fun VM9Type () Int
    225)
  (define-fun C5_VM7 () Int
    0)
  (define-fun C3_VM8 () Int
    0)
  (define-fun MemProv1 () Int
    3750)
  (define-fun ProcProv2 () Int
    4)
  (define-fun C4_VM9 () Int
    0)
  (define-fun StorageProv2 () Int
    2000)
  (define-fun C2_VM2 () Int
    0)
  (define-fun VM10Type () Int
    225)
  (define-fun C1_VM2 () Int
    0)
  (define-fun ProcProv6 () Int
    4)
  (define-fun C3_VM6 () Int
    0)
  (define-fun ProcProv10 () Int
    2)
  (define-fun C4_VM6 () Int
    0)
  (define-fun StorageProv5 () Int
    2000)
  (define-fun C5_VM5 () Int
    0)
  (define-fun C4_VM10 () Int
    0)
  (define-fun VM6Type () Int
    182)
  (define-fun C4_VM3 () Int
    0)
  (define-fun C5_VM2 () Int
    1)
  (define-fun PriceProv6 () Int
    210)
  (define-fun C3_VM7 () Int
    0)
  (define-fun C1_VM3 () Int
    0)
  (define-fun C4_VM1 () Int
    0)
  (define-fun C5_VM3 () Int
    0)
  (define-fun C2_VM1 () Int
    1)
  (define-fun PriceProv5 () Int
    210)
  (define-fun C3_VM3 () Int
    0)
  (define-fun StorageProv3 () Int
    2000)
  (define-fun StorageProv4 () Int
    2000)
)
(objectives
 ( 35)
 ((+ 0
   PriceProv1
   PriceProv2
   PriceProv3
   PriceProv4
   PriceProv5
   PriceProv6
   PriceProv7
   PriceProv8
   PriceProv9
   PriceProv10) 1512)
)
(:added-eqs                   486862
 :arith-eq-adapter            374693
 :arith-bound-propagations-lp 1415
 :arith-conflicts             65
 :arith-diseq                 419668
 :arith-fixed-eqs             4768
 :arith-lower                 510634
 :arith-make-feasible         176175
 :arith-max-columns           399
 :arith-max-rows              32
 :arith-upper                 366586
 :binary-propagations         810041
 :bv-bit2core                 11358
 :bv-dynamic-diseqs           561800
 :bv->core-eq                 2102
 :conflicts                   4666
 :decisions                   376849
 :del-clause                  1033988
 :final-checks                49
 :max-memory                  75.26
 :maxsat-cores                10
 :memory                      73.14
 :minimized-lits              1171
 :mk-bool-var                 702663
 :mk-clause                   1035474
 :mk-clause-binary            10884
 :num-allocs                  3671882194
 :num-checks                  103
 :pb-conflicts                188
 :pb-predicates               7
 :pb-propagations             5479
 :pb-resolves                 3
 :propagations                1206968
 :restarts                    23
 :rlimit-count                21133272
 :time                        3.57
 :total-time                  3.59)
